(declare-const income Real)
(declare-const tax_rate Real)
(declare-const fee_bl Real)
(declare-const tax_on_capital_gains Real)
(assert (= tax_rate 0.07))
(assert (= tax_on_capital_gains (* tax_rate income)))
(assert (= fee_bl tax_on_capital_gains))